
ASes= { 1, 2, 3, 4, 5, 6, 7, 8, 9, 10, 11 } ;


Objects= { 1, 2, 3, 4, 5, 6, 7, 8, 9, 10, 11, 12, 13, 14, 15, 16, 17, 18, 19, 20, 21, 22, 23, 24, 25, 26, 27, 28, 29, 30, 31, 32, 33, 34, 35, 36, 37, 38, 39, 40, 41, 42, 43, 44, 45, 46, 47, 48, 49, 50, 51, 52, 53, 54, 55, 56, 57, 58, 59, 60, 61, 62, 63, 64, 65, 66, 67, 68, 69, 70, 71, 72, 73, 74, 75, 76, 77, 78, 79, 80, 81, 82, 83, 84, 85, 86, 87, 88, 89, 90, 91, 92, 93, 94, 95, 96, 97, 98, 99, 100 } ;


QualityLevels= { 0, 1, 2, 3, 4, 5 } ;

Arcs = {<2,1,490000>, <1,2,490000>, <11,1,490000>, <1,11,490000>, <11,2,490000>, <2,11,490000>, <11,10,490000>, <10,11,490000>, <3,2,490000>, <2,3,490000>, <4,3,490000>, <3,4,490000>, <5,4,490000>, <4,5,490000>, <6,5,490000>, <5,6,490000>, <7,6,490000>, <6,7,490000>, <8,4,490000>, <4,8,490000>, <8,7,490000>, <7,8,490000>, <9,3,490000>, <3,9,490000>, <9,8,490000>, <8,9,490000>, <10,9,490000>, <9,10,490000>};


RatePerQuality= [ 0  300  700  1500  2500  3500 ] ;


CacheSpacePerQuality= [ 10000  11.25  26.25  56.25  93.75  131.25 ] ;


UtilityPerQuality= [ 0  0.2  0.4  0.6  0.8  1 ] ;


ObjectsPublishedByProducers=[ [ 0  0  0  0  0  0  0  1  0  0  0 ]  [ 0  0  0  0  0  0  0  1  0  0  0 ]  [ 0  0  0  0  0  0  0  1  0  0  0 ]  [ 0  0  0  0  0  0  0  1  0  0  0 ]  [ 0  0  0  0  0  0  0  1  0  0  0 ]  [ 0  0  0  0  0  0  0  1  0  0  0 ]  [ 0  0  0  0  0  0  0  1  0  0  0 ]  [ 0  0  0  0  0  0  0  1  0  0  0 ]  [ 0  0  0  0  0  0  0  1  0  0  0 ]  [ 0  0  0  0  0  0  0  1  0  0  0 ]  [ 0  0  0  0  0  0  0  1  0  0  0 ]  [ 0  0  0  0  0  0  0  1  0  0  0 ]  [ 0  0  0  0  0  0  0  1  0  0  0 ]  [ 0  0  0  0  0  0  0  1  0  0  0 ]  [ 0  0  0  0  0  0  0  1  0  0  0 ]  [ 0  0  0  0  0  0  0  1  0  0  0 ]  [ 0  0  0  0  0  0  0  1  0  0  0 ]  [ 0  0  0  0  0  0  0  1  0  0  0 ]  [ 0  0  0  0  0  0  0  1  0  0  0 ]  [ 0  0  0  0  0  0  0  1  0  0  0 ]  [ 0  0  0  0  0  0  0  1  0  0  0 ]  [ 0  0  0  0  0  0  0  1  0  0  0 ]  [ 0  0  0  0  0  0  0  1  0  0  0 ]  [ 0  0  0  0  0  0  0  1  0  0  0 ]  [ 0  0  0  0  0  0  0  1  0  0  0 ]  [ 0  0  0  0  0  0  0  1  0  0  0 ]  [ 0  0  0  0  0  0  0  1  0  0  0 ]  [ 0  0  0  0  0  0  0  1  0  0  0 ]  [ 0  0  0  0  0  0  0  1  0  0  0 ]  [ 0  0  0  0  0  0  0  1  0  0  0 ]  [ 0  0  0  0  0  0  0  1  0  0  0 ]  [ 0  0  0  0  0  0  0  1  0  0  0 ]  [ 0  0  0  0  0  0  0  1  0  0  0 ]  [ 0  0  0  0  0  0  0  1  0  0  0 ]  [ 0  0  0  0  0  0  0  1  0  0  0 ]  [ 0  0  0  0  0  0  0  1  0  0  0 ]  [ 0  0  0  0  0  0  0  1  0  0  0 ]  [ 0  0  0  0  0  0  0  1  0  0  0 ]  [ 0  0  0  0  0  0  0  1  0  0  0 ]  [ 0  0  0  0  0  0  0  1  0  0  0 ]  [ 0  0  0  0  0  0  0  1  0  0  0 ]  [ 0  0  0  0  0  0  0  1  0  0  0 ]  [ 0  0  0  0  0  0  0  1  0  0  0 ]  [ 0  0  0  0  0  0  0  1  0  0  0 ]  [ 0  0  0  0  0  0  0  1  0  0  0 ]  [ 0  0  0  0  0  0  0  1  0  0  0 ]  [ 0  0  0  0  0  0  0  1  0  0  0 ]  [ 0  0  0  0  0  0  0  1  0  0  0 ]  [ 0  0  0  0  0  0  0  1  0  0  0 ]  [ 0  0  0  0  0  0  0  1  0  0  0 ]  [ 0  0  0  0  0  0  0  1  0  0  0 ]  [ 0  0  0  0  0  0  0  1  0  0  0 ]  [ 0  0  0  0  0  0  0  1  0  0  0 ]  [ 0  0  0  0  0  0  0  1  0  0  0 ]  [ 0  0  0  0  0  0  0  1  0  0  0 ]  [ 0  0  0  0  0  0  0  1  0  0  0 ]  [ 0  0  0  0  0  0  0  1  0  0  0 ]  [ 0  0  0  0  0  0  0  1  0  0  0 ]  [ 0  0  0  0  0  0  0  1  0  0  0 ]  [ 0  0  0  0  0  0  0  1  0  0  0 ]  [ 0  0  0  0  0  0  0  1  0  0  0 ]  [ 0  0  0  0  0  0  0  1  0  0  0 ]  [ 0  0  0  0  0  0  0  1  0  0  0 ]  [ 0  0  0  0  0  0  0  1  0  0  0 ]  [ 0  0  0  0  0  0  0  1  0  0  0 ]  [ 0  0  0  0  0  0  0  1  0  0  0 ]  [ 0  0  0  0  0  0  0  1  0  0  0 ]  [ 0  0  0  0  0  0  0  1  0  0  0 ]  [ 0  0  0  0  0  0  0  1  0  0  0 ]  [ 0  0  0  0  0  0  0  1  0  0  0 ]  [ 0  0  0  0  0  0  0  1  0  0  0 ]  [ 0  0  0  0  0  0  0  1  0  0  0 ]  [ 0  0  0  0  0  0  0  1  0  0  0 ]  [ 0  0  0  0  0  0  0  1  0  0  0 ]  [ 0  0  0  0  0  0  0  1  0  0  0 ]  [ 0  0  0  0  0  0  0  1  0  0  0 ]  [ 0  0  0  0  0  0  0  1  0  0  0 ]  [ 0  0  0  0  0  0  0  1  0  0  0 ]  [ 0  0  0  0  0  0  0  1  0  0  0 ]  [ 0  0  0  0  0  0  0  1  0  0  0 ]  [ 0  0  0  0  0  0  0  1  0  0  0 ]  [ 0  0  0  0  0  0  0  1  0  0  0 ]  [ 0  0  0  0  0  0  0  1  0  0  0 ]  [ 0  0  0  0  0  0  0  1  0  0  0 ]  [ 0  0  0  0  0  0  0  1  0  0  0 ]  [ 0  0  0  0  0  0  0  1  0  0  0 ]  [ 0  0  0  0  0  0  0  1  0  0  0 ]  [ 0  0  0  0  0  0  0  1  0  0  0 ]  [ 0  0  0  0  0  0  0  1  0  0  0 ]  [ 0  0  0  0  0  0  0  1  0  0  0 ]  [ 0  0  0  0  0  0  0  1  0  0  0 ]  [ 0  0  0  0  0  0  0  1  0  0  0 ]  [ 0  0  0  0  0  0  0  1  0  0  0 ]  [ 0  0  0  0  0  0  0  1  0  0  0 ]  [ 0  0  0  0  0  0  0  1  0  0  0 ]  [ 0  0  0  0  0  0  0  1  0  0  0 ]  [ 0  0  0  0  0  0  0  1  0  0  0 ]  [ 0  0  0  0  0  0  0  1  0  0  0 ]  [ 0  0  0  0  0  0  0  1  0  0  0 ]  [ 0  0  0  0  0  0  0  1  0  0  0 ] ];

ObjRequests = {  <1,5,4>, <2,5,188>, <3,5,8>, <4,5,62>, <5,5,18>, <6,5,18>, <7,5,3>, <8,5,2>, <9,5,16>, <10,5,3>, <11,5,5>, <12,5,14>, <13,5,35>, <15,5,12>, <16,5,10>, <17,5,11>, <18,5,4>, <19,5,31>, <20,5,1>, <21,5,18>, <22,5,2>, <23,5,2>, <24,5,7>, <25,5,5>, <26,5,13>, <27,5,2>, <29,5,3>, <30,5,2>, <31,5,2>, <32,5,8>, <33,5,9>, <35,5,11>, <36,5,9>, <37,5,7>, <38,5,2>, <39,5,11>, <40,5,1>, <41,5,3>, <42,5,6>, <43,5,1>, <44,5,4>, <45,5,4>, <46,5,4>, <47,5,2>, <48,5,2>, <49,5,2>, <50,5,1>, <52,5,3>, <53,5,2>, <54,5,2>, <55,5,2>, <56,5,5>, <57,5,6>, <60,5,2>, <62,5,2>, <63,5,1>, <64,5,6>, <65,5,1>, <66,5,1>, <67,5,2>, <68,5,1>, <69,5,2>, <70,5,5>, <71,5,1>, <73,5,2>, <75,5,2>, <76,5,2>, <77,5,2>, <78,5,1>, <79,5,2>, <80,5,7>, <81,5,4>, <82,5,3>, <83,5,4>, <84,5,2>, <85,5,1>, <86,5,8>, <87,5,1>, <88,5,7>, <92,5,3>, <94,5,5>, <95,5,1>, <96,5,4>, <97,5,2>, <99,5,1>, <1,6,20>, <2,6,9>, <3,6,37>, <4,6,30>, <5,6,17>, <6,6,4>, <7,6,36>, <8,6,6>, <9,6,19>, <10,6,25>, <11,6,9>, <12,6,10>, <13,6,1>, <14,6,24>, <15,6,3>, <16,6,20>, <17,6,1>, <18,6,3>, <19,6,9>, <20,6,13>, <23,6,23>, <24,6,14>, <25,6,2>, <26,6,4>, <27,6,13>, <28,6,4>, <29,6,1>, <30,6,4>, <31,6,5>, <32,6,1>, <33,6,5>, <34,6,2>, <35,6,7>, <36,6,1>, <37,6,2>, <38,6,6>, <39,6,3>, <40,6,6>, <41,6,3>, <42,6,1>, <43,6,9>, <44,6,6>, <45,6,2>, <46,6,4>, <47,6,3>, <48,6,6>, <49,6,5>, <51,6,3>, <52,6,1>, <53,6,2>, <54,6,3>, <55,6,4>, <56,6,6>, <57,6,2>, <59,6,5>, <60,6,7>, <61,6,1>, <63,6,1>, <64,6,2>, <65,6,2>, <66,6,3>, <67,6,2>, <69,6,1>, <70,6,2>, <71,6,3>, <72,6,2>, <73,6,1>, <74,6,1>, <75,6,2>, <77,6,2>, <78,6,1>, <79,6,1>, <80,6,1>, <81,6,5>, <82,6,5>, <83,6,1>, <84,6,2>, <85,6,3>, <86,6,3>, <87,6,1>, <88,6,1>, <89,6,2>, <90,6,1>, <93,6,3>, <94,6,1>, <95,6,1>, <96,6,4>, <98,6,4>, <100,6,1>, <1,7,332>, <2,7,8>, <3,7,129>, <4,7,65>, <5,7,15>, <6,7,26>, <7,7,23>, <8,7,15>, <9,7,48>, <10,7,35>, <11,7,13>, <12,7,30>, <13,7,6>, <14,7,15>, <15,7,8>, <16,7,4>, <17,7,10>, <18,7,5>, <19,7,3>, <20,7,17>, <21,7,2>, <22,7,10>, <23,7,7>, <24,7,1>, <25,7,7>, <26,7,2>, <27,7,18>, <28,7,6>, <29,7,1>, <30,7,10>, <31,7,6>, <32,7,5>, <33,7,1>, <34,7,7>, <35,7,3>, <36,7,7>, <37,7,3>, <38,7,4>, <39,7,1>, <40,7,6>, <41,7,1>, <42,7,19>, <43,7,2>, <44,7,3>, <45,7,3>, <46,7,4>, <47,7,2>, <48,7,2>, <49,7,2>, <50,7,7>, <51,7,6>, <52,7,2>, <53,7,1>, <54,7,1>, <55,7,1>, <56,7,8>, <57,7,3>, <58,7,4>, <59,7,4>, <60,7,1>, <61,7,5>, <62,7,3>, <63,7,4>, <64,7,10>, <65,7,1>, <66,7,3>, <68,7,1>, <69,7,1>, <71,7,8>, <72,7,3>, <73,7,4>, <74,7,2>, <75,7,1>, <76,7,3>, <78,7,2>, <79,7,2>, <80,7,1>, <81,7,1>, <83,7,1>, <84,7,2>, <85,7,1>, <86,7,3>, <87,7,1>, <88,7,1>, <89,7,2>, <90,7,2>, <91,7,4>, <92,7,2>, <95,7,6>, <96,7,1>, <97,7,1>, <98,7,1>, <99,7,1>, <1,1,381>, <2,1,115>, <3,1,81>, <4,1,11>, <5,1,54>, <6,1,43>, <7,1,7>, <8,1,35>, <9,1,1>, <10,1,6>, <11,1,3>, <12,1,2>, <13,1,14>, <14,1,6>, <16,1,6>, <17,1,11>, <18,1,20>, <19,1,4>, <20,1,7>, <21,1,7>, <22,1,15>, <23,1,4>, <24,1,9>, <25,1,1>, <26,1,3>, <27,1,3>, <28,1,4>, <29,1,17>, <31,1,5>, <32,1,5>, <33,1,1>, <34,1,1>, <35,1,1>, <36,1,2>, <38,1,4>, <39,1,2>, <40,1,3>, <41,1,5>, <42,1,1>, <43,1,1>, <44,1,2>, <45,1,1>, <47,1,7>, <48,1,4>, <49,1,1>, <50,1,4>, <51,1,4>, <52,1,3>, <53,1,8>, <54,1,4>, <55,1,1>, <57,1,3>, <58,1,10>, <61,1,1>, <62,1,7>, <63,1,4>, <64,1,4>, <65,1,4>, <67,1,1>, <69,1,3>, <71,1,3>, <72,1,1>, <73,1,1>, <74,1,2>, <75,1,1>, <77,1,4>, <79,1,2>, <80,1,1>, <82,1,3>, <83,1,3>, <84,1,3>, <85,1,2>, <86,1,1>, <87,1,5>, <88,1,2>, <91,1,2>, <93,1,1>, <95,1,1>, <96,1,3>, <97,1,3>, <98,1,4>, <99,1,2>, <1,10,51>, <2,10,77>, <3,10,9>, <4,10,38>, <5,10,50>, <6,10,69>, <7,10,30>, <8,10,37>, <9,10,2>, <10,10,21>, <11,10,41>, <12,10,3>, <13,10,17>, <14,10,2>, <15,10,18>, <16,10,5>, <17,10,8>, <18,10,19>, <19,10,2>, <20,10,5>, <21,10,4>, <22,10,6>, <24,10,6>, <25,10,9>, <26,10,1>, <27,10,5>, <28,10,6>, <29,10,5>, <30,10,3>, <31,10,9>, <32,10,2>, <33,10,2>, <34,10,8>, <35,10,1>, <36,10,4>, <37,10,1>, <38,10,6>, <39,10,2>, <40,10,4>, <41,10,5>, <43,10,4>, <44,10,3>, <45,10,13>, <46,10,8>, <47,10,4>, <48,10,2>, <49,10,1>, <50,10,7>, <52,10,7>, <53,10,3>, <55,10,4>, <56,10,3>, <58,10,2>, <59,10,3>, <60,10,4>, <61,10,3>, <62,10,3>, <63,10,1>, <64,10,1>, <65,10,3>, <66,10,1>, <67,10,1>, <68,10,5>, <69,10,4>, <70,10,1>, <71,10,5>, <72,10,3>, <73,10,3>, <74,10,5>, <75,10,3>, <76,10,4>, <77,10,4>, <78,10,1>, <79,10,1>, <80,10,1>, <81,10,1>, <82,10,3>, <83,10,2>, <84,10,2>, <85,10,1>, <87,10,1>, <88,10,2>, <89,10,1>, <90,10,4>, <91,10,1>, <92,10,1>, <93,10,2>, <94,10,1>, <95,10,3>, <96,10,1>, <97,10,1>, <98,10,1>, <99,10,1>, <100,10,1> };

MaxCacheStorageAtSingleAS= [ 131.25  131.25  131.25  131.25  131.25  131.25  131.25  131.25  131.25  131.25  131.25 ] ;

MaxCacheStorage = 1443.75 ;
SolutionGap = 0.01 ;
